Route #1: 37 67 68 71 65 16 42 26 47 43 
Route #2: 50 33 5 23 46 51 77 
Route #3: 54 34 48 56 10 55 73 59 39 74 
Route #4: 14 75 30 18 61 40 78 52 
Route #5: 41 22 2 8 63 45 
Route #6: 60 21 76 58 20 27 36 66 70 57 
Route #7: 15 49 19 80 29 72 11 
Route #8: 32 28 79 62 17 44 69 9 38 3 25 
Route #9: 4 13 6 31 7 24 
Route #10: 64 12 35 53 
cost 1947.17
